TYPE : Vertex Cover
DIMENSION: 20
EDGE_DATA_SECTION:
0 13
0 18
1 10
2 6
2 11
4 6
4 10
4 16
4 19
5 10
5 12
5 16
6 9
6 16
8 15
12 13
12 15
14 15
14 17
15 19
16 17
-1
VERTEX_DEGREE:
2.0 1.0 2.0 0.0 4.0 3.0 4.0 0.0 1.0 1.0 3.0 1.0 3.0 2.0 2.0 4.0 4.0 2.0 1.0 2.0
VERTEX_COVER:
0 2 4 6 10 12 15 16 17
EOF
